48
120
84	1
81	4
80	4
79	2
78	3
77	3
76	4
75	1
74	1
73	3
72	2
71	2
70	2
68	1
66	1
64	1
63	2
61	2
60	3
58	3
57	5
56	1
55	1
53	2
52	2
50	2
49	5
47	1
46	4
45	1
43	1
42	3
41	1
40	2
39	3
38	1
37	1
36	5
35	1
34	1
33	3
32	1
31	1
30	1
29	1
28	2
27	1
25	2
